#p mp2/3-21g opt freq gfinput iop(6/7=3)

Arkadiusz Rembiszewski

0 1
O 0.0     0.0     0.0
C 0.0     0.0     1.0
S 0.0     0.0     2.0

