%chk=keto_tzvpp.chk
%mem=4000mb
#p wB97XD/def2TZVPP scf(conver=8,novaracc) opt(MaxCycles=100) freq GFInput IOP(6/7=3)

keto optimization

0 1
N        1.61893       -1.08269        0.00000
C        0.62869       -2.03492        0.00000
N       -0.63512       -1.79220       -0.00000
C       -0.95132       -0.46026       -0.00000
N       -2.20809        0.07017       -0.00000
C       -2.02316        1.36797       -0.00000
N       -0.70988        1.72465       -0.00000
C        0.00000        0.55532        0.00000
C        1.41687        0.30801        0.00000
O        2.33378        1.10233        0.00000
H        2.59061       -1.37644        0.00000
H        0.98655       -3.07002        0.00000
H       -2.81719        2.11441       -0.00000
H       -0.31742        2.65706        0.00000

